2
8
20
1 1.3 1.55 1.75 2.1
40 6 6 45 29 14 39 31 23 49 47 47 16 48 45 36 8 14 23 10 10 17 46 24 15 39 22 35 46 44 25 22 28 36 44 11 28 29 19 35 43 38 35 8 18 32 6 27 16 25 13 43 28 42 22 15 6 47 8 8 17 44 7 35 29 15 17 9 42 31 48 29 47 12 47 46 21 35 19 35 20 26 16 5 23 30 23 44 47 13 17 21 26 40 20 10 38 49 22 39 39 48 36 36 5 9 42 42 15 24 8 9 8 6 17 26 39 13 6 5 26 14 43 8 30 32 10 32 32 22 33 25 16 26 12 43 16 36 5 25 37 22 26 6 15 37 41 42 43 13 27 13 10 33 38 24 15 31 7 47 